objective value:                           -6527.0539
x1                                                  1 	(obj:-356.723)
x24                                                 1 	(obj:-171.044)
x77                                                 1 	(obj:-127.163)
x101                                                1 	(obj:-58.3427)
x117                                                1 	(obj:-569.645)
x132                                                1 	(obj:-451.837)
x142                                                1 	(obj:-696.68)
x190                                                1 	(obj:-130.805)
x204                                                1 	(obj:-73.3456)
x222                                                1 	(obj:-189.586)
x234                                                1 	(obj:-79.0746)
x249                                                1 	(obj:-209.666)
x271                                                1 	(obj:-440.209)
x278                                                1 	(obj:-257.986)
x293                                                1 	(obj:-331.32)
x328                                                1 	(obj:-349.637)
x354                                                1 	(obj:-695.194)
x396                                                1 	(obj:-922.266)
x482                                                1 	(obj:-416.53)
